CapLotSizing_PM/src/Instancias/TCLSLT/6i12p2m/NBB06.dat
6 12 2
 1
      1135
      1135
    2
     3
     2
     3
     4
     3
   4.3  15.5    62    23 
  4.8  47.6   773    20 
  3.4  49.7   119    20 
  3.0  24.8   811    24 
  2.4  19.8   539    22 
  2.5  39.6   666    15 
  2.8  37.1   593    25 
  3.1  17.2   923    15 
  3.7  37.2   696    24 
  2.0  18.9   928    21 
  3.2  44.6   734    24 
  3.9  46.7   376    17 
   99   101   107     3   110    39 
  151   114   104    93     4    71 
   38   112   140   153   117   172 
   48   130   160   126   159    36 
   11   118    23   108    45    60 
   86    57    80   144    15    16 
   87    31     8   167    56   173 
   73   165    93   118    23    48 
   58   175   125   177   170    94 
   56   174   131    14    29    68 
  154    92    34    15    94    20 
  148    42    44   169    82     4 
