CapLotSizing_PM/src/Instancias/TCLSLT/6i12p2m/NBB06.OUT
 CG ITER, OVMR, OVMRUB =           1   15545.5029297   15545.5019531
 CG ITER, OVMR, OVMRUB =           2   15545.5029297   15545.5019531
 CG ITER, OVMR, OVMRUB =           3   14228.9013672   15545.5019531
 CG ITER, OVMR, OVMRUB =           4   13247.1914062   15545.5019531
 CG ITER, OVMR, OVMRUB =           5   14324.0244141   15545.5019531
 CG ITER, OVMR, OVMRUB =           6   14738.9365234   15545.5019531
 CG ITER, OVMR, OVMRUB =           7   14732.7861328   15545.5019531
 CG ITER, OVMR, OVMRUB =           8   14815.5703125   15545.5019531
 CG ITER, OVMR, OVMRUB =           9   14867.2236328   15545.5019531
 CG ITER, OVMR, OVMRUB =          10   14855.4677734   15545.5019531
 CG ITER, OVMR, OVMRUB =          11   14854.3369141   15545.5019531
 CG ITER, OVMR, OVMRUB =          12   14853.6933594   15545.5019531
 CG ITER, OVMR, OVMRUB =          13   14853.8974609   15545.5019531
 CG ITER, OVMR, OVMRUB =          14   14847.1865234   15545.5019531
 CG ITER, OVMR, OVMRUB =          15   14847.3339844   15545.5019531
 CG ITER, OVMR, OVMRUB =          16   14846.8056641   15545.5019531
 CG ITER, OVMR, OVMRUB =          17   14846.7783203   15545.5019531
 CG ITER, OVMR, OVMRUB =          18   14846.6513672   15545.5019531
 CG ITER, OVMR, OVMRUB =          19   14846.6513672   15545.5019531
OVLB =   14846.6513672 OVLUB =   15545.5019531 TIME =       1.8600000
